# Solution for model r3_t9_m5_4
# Finished Task: 8 / 9
# Makespan: 623.0, Total Distance: 679.0, Total Time: 0.1720
# R O S F
0 0 5 0.0 0.0
1 1 10 0.0 0.0
2 2 8 0.0 0.0
3 0 6 379.0 416.0
4 1 11 454.0 490.0
5 0 3 77.0 102.0
6 0 -1 557.0 591.0
7 2 -1 526.0 557.0
8 2 7 416.0 441.0
9 -1 -1 -1.0 -1.0
10 1 4 372.0 407.0
11 1 -1 591.0 623.0
